(set-info :status unknown)
(declare-fun mem0 () (_ BitVec 8))
(declare-fun %p1 () (_ BitVec 64))
(declare-fun %c () (_ BitVec 1))
(assert
 (let ((?x6209 (concat (concat (concat (concat (concat mem0 mem0) mem0) mem0) mem0) mem0)))
 (let ((?x18731 (concat (concat ?x6209 mem0) ((_ extract 1 0) mem0))))
 (let ((?x10825 (ite (= %c (_ bv1 1)) %p1 (_ bv0 64))))
 (let (($x3140 (and (distinct ?x10825 (_ bv0 64)) true)))
 (and $x3140 $x3140 (and (distinct ?x18731 ?x18731) true)))))))
(check-sat)
